
Gurobi 9.5.1 (mac64[x86], gurobi_cl) logging started Tue Oct 22 14:05:22 2024

Set parameter Username
Set parameter LogFile to value "gurobi.log"
Academic license - for non-commercial use only - expires 2025-09-17
Using license file /Users/fredericbusch/gurobi.lic

Gurobi 9.5.1 (mac64[x86], gurobi_cl) logging started Tue Oct 22 14:32:48 2024

Set parameter Username
Set parameter LogFile to value "gurobi.log"
Academic license - for non-commercial use only - expires 2025-09-17
Using license file /Users/fredericbusch/gurobi.lic

Gurobi 9.5.1 (mac64[x86], gurobi_cl) logging started Tue Oct 22 14:34:23 2024

Set parameter Username
Set parameter LogFile to value "gurobi.log"
Academic license - for non-commercial use only - expires 2025-09-17
Using license file /Users/fredericbusch/gurobi.lic

Gurobi 9.5.1 (mac64[x86], gurobi_cl) logging started Tue Oct 22 14:42:50 2024

Set parameter Username
Set parameter LogFile to value "gurobi.log"
Academic license - for non-commercial use only - expires 2025-09-17
Using license file /Users/fredericbusch/gurobi.lic

Gurobi 9.5.1 (mac64[x86], gurobi_cl) logging started Tue Oct 22 14:43:52 2024

Set parameter Username
Set parameter LogFile to value "gurobi.log"
Academic license - for non-commercial use only - expires 2025-09-17
Using license file /Users/fredericbusch/gurobi.lic

Gurobi 9.5.1 (mac64[x86], gurobi_cl) logging started Tue Oct 22 14:44:22 2024

Set parameter Username
Set parameter LogFile to value "gurobi.log"
Academic license - for non-commercial use only - expires 2025-09-17
Using license file /Users/fredericbusch/gurobi.lic

Gurobi 9.5.1 (mac64[x86], gurobi_cl) logging started Tue Oct 22 14:46:18 2024

Set parameter Username
Set parameter LogFile to value "gurobi.log"
Academic license - for non-commercial use only - expires 2025-09-17
Using license file /Users/fredericbusch/gurobi.lic

Gurobi 9.5.1 (mac64[x86], gurobi_cl) logging started Tue Oct 22 15:02:47 2024

Set parameter Username
Set parameter LogFile to value "gurobi.log"
Academic license - for non-commercial use only - expires 2025-09-17
Using license file /Users/fredericbusch/gurobi.lic

Gurobi 9.5.1 (mac64[x86], gurobi_cl) logging started Tue Oct 22 15:03:21 2024

Set parameter Username
Set parameter LogFile to value "gurobi.log"
Academic license - for non-commercial use only - expires 2025-09-17
Using license file /Users/fredericbusch/gurobi.lic

Gurobi 9.5.1 (mac64[x86], gurobi_cl) logging started Tue Oct 22 15:03:43 2024

Set parameter Username
Set parameter LogFile to value "gurobi.log"
Academic license - for non-commercial use only - expires 2025-09-17
Using license file /Users/fredericbusch/gurobi.lic

Gurobi 9.5.1 (mac64[x86], gurobi_cl) logging started Tue Oct 22 15:03:54 2024

Set parameter Username
Set parameter LogFile to value "gurobi.log"
Academic license - for non-commercial use only - expires 2025-09-17
Using license file /Users/fredericbusch/gurobi.lic

Gurobi 9.5.1 (mac64[x86], gurobi_cl) logging started Tue Oct 22 15:04:49 2024

Set parameter Username
Set parameter LogFile to value "gurobi.log"
Academic license - for non-commercial use only - expires 2025-09-17
Using license file /Users/fredericbusch/gurobi.lic

Gurobi 9.5.1 (mac64[x86], gurobi_cl) logging started Wed Oct 23 07:22:08 2024

Set parameter Username
Set parameter LogFile to value "gurobi.log"
Academic license - for non-commercial use only - expires 2025-09-17
Using license file /Users/fredericbusch/gurobi.lic

Gurobi 9.5.1 (mac64[x86], gurobi_cl) logging started Wed Oct 23 07:28:15 2024

Set parameter Username
Set parameter LogFile to value "gurobi.log"
Academic license - for non-commercial use only - expires 2025-09-17
Using license file /Users/fredericbusch/gurobi.lic

Gurobi 9.5.1 (mac64[x86], gurobi_cl) logging started Wed Oct 23 07:33:00 2024

Set parameter Username
Set parameter LogFile to value "gurobi.log"
Academic license - for non-commercial use only - expires 2025-09-17
Using license file /Users/fredericbusch/gurobi.lic

Gurobi 9.5.1 (mac64[x86], gurobi_cl) logging started Wed Oct 23 07:38:46 2024

Set parameter Username
Set parameter LogFile to value "gurobi.log"
Academic license - for non-commercial use only - expires 2025-09-17
Using license file /Users/fredericbusch/gurobi.lic

Gurobi 9.5.1 (mac64[x86], gurobi_cl) logging started Wed Oct 23 07:50:27 2024

Set parameter Username
Set parameter LogFile to value "gurobi.log"
Academic license - for non-commercial use only - expires 2025-09-17
Using license file /Users/fredericbusch/gurobi.lic

Gurobi 9.5.1 (mac64[x86], gurobi_cl) logging started Wed Oct 23 07:54:25 2024

Set parameter Username
Set parameter LogFile to value "gurobi.log"
Academic license - for non-commercial use only - expires 2025-09-17
Using license file /Users/fredericbusch/gurobi.lic

Gurobi 9.5.1 (mac64[x86], gurobi_cl) logging started Wed Oct 23 07:54:53 2024

Set parameter Username
Set parameter LogFile to value "gurobi.log"
Academic license - for non-commercial use only - expires 2025-09-17
Using license file /Users/fredericbusch/gurobi.lic

Gurobi 9.5.1 (mac64[x86], gurobi_cl) logging started Wed Oct 23 07:55:18 2024

Set parameter Username
Set parameter LogFile to value "gurobi.log"
Academic license - for non-commercial use only - expires 2025-09-17
Using license file /Users/fredericbusch/gurobi.lic

Gurobi 9.5.1 (mac64[x86], gurobi_cl) logging started Wed Oct 23 07:56:00 2024

Set parameter Username
Set parameter LogFile to value "gurobi.log"
Academic license - for non-commercial use only - expires 2025-09-17
Using license file /Users/fredericbusch/gurobi.lic

Gurobi 9.5.1 (mac64[x86], gurobi_cl) logging started Wed Oct 23 07:57:13 2024

Set parameter Username
Set parameter LogFile to value "gurobi.log"
Academic license - for non-commercial use only - expires 2025-09-17
Using license file /Users/fredericbusch/gurobi.lic

Gurobi 9.5.1 (mac64[x86], gurobi_cl) logging started Wed Oct 23 07:58:53 2024

Set parameter Username
Set parameter LogFile to value "gurobi.log"
Academic license - for non-commercial use only - expires 2025-09-17
Using license file /Users/fredericbusch/gurobi.lic

Gurobi 9.5.1 (mac64[x86], gurobi_cl) logging started Wed Oct 23 07:59:11 2024

Set parameter Username
Set parameter LogFile to value "gurobi.log"
Academic license - for non-commercial use only - expires 2025-09-17
Using license file /Users/fredericbusch/gurobi.lic

Gurobi 9.5.1 (mac64[x86], gurobi_cl) logging started Wed Oct 23 07:59:23 2024

Set parameter Username
Set parameter LogFile to value "gurobi.log"
Academic license - for non-commercial use only - expires 2025-09-17
Using license file /Users/fredericbusch/gurobi.lic

Gurobi 9.5.1 (mac64[x86], gurobi_cl) logging started Wed Oct 23 08:04:22 2024

Set parameter Username
Set parameter LogFile to value "gurobi.log"
Academic license - for non-commercial use only - expires 2025-09-17
Using license file /Users/fredericbusch/gurobi.lic

Gurobi 9.5.1 (mac64[x86], gurobi_cl) logging started Wed Oct 23 08:06:39 2024

Set parameter Username
Set parameter LogFile to value "gurobi.log"
Academic license - for non-commercial use only - expires 2025-09-17
Using license file /Users/fredericbusch/gurobi.lic

Gurobi 9.5.1 (mac64[x86], gurobi_cl) logging started Wed Oct 23 08:07:44 2024

Set parameter Username
Set parameter LogFile to value "gurobi.log"
Academic license - for non-commercial use only - expires 2025-09-17
Using license file /Users/fredericbusch/gurobi.lic

Gurobi 9.5.1 (mac64[x86], gurobi_cl) logging started Wed Oct 23 08:08:27 2024

Set parameter Username
Set parameter LogFile to value "gurobi.log"
Academic license - for non-commercial use only - expires 2025-09-17
Using license file /Users/fredericbusch/gurobi.lic

Gurobi 9.5.1 (mac64[x86], gurobi_cl) logging started Wed Oct 23 08:11:55 2024

Set parameter Username
Set parameter LogFile to value "gurobi.log"
Academic license - for non-commercial use only - expires 2025-09-17
Using license file /Users/fredericbusch/gurobi.lic

Gurobi 9.5.1 (mac64[x86], gurobi_cl) logging started Wed Oct 23 08:33:16 2024

Set parameter Username
Set parameter LogFile to value "gurobi.log"
Academic license - for non-commercial use only - expires 2025-09-17
Using license file /Users/fredericbusch/gurobi.lic

Gurobi 9.5.1 (mac64[x86], gurobi_cl) logging started Wed Oct 23 08:35:18 2024

Set parameter Username
Set parameter LogFile to value "gurobi.log"
Academic license - for non-commercial use only - expires 2025-09-17
Using license file /Users/fredericbusch/gurobi.lic

Gurobi 9.5.1 (mac64[x86], gurobi_cl) logging started Wed Oct 23 08:40:24 2024

Set parameter Username
Set parameter LogFile to value "gurobi.log"
Academic license - for non-commercial use only - expires 2025-09-17
Using license file /Users/fredericbusch/gurobi.lic

Gurobi 9.5.1 (mac64[x86], gurobi_cl) logging started Wed Oct 23 08:42:38 2024

Set parameter Username
Set parameter LogFile to value "gurobi.log"
Academic license - for non-commercial use only - expires 2025-09-17
Using license file /Users/fredericbusch/gurobi.lic

Gurobi 9.5.1 (mac64[x86], gurobi_cl) logging started Wed Oct 23 08:43:13 2024

Set parameter Username
Set parameter LogFile to value "gurobi.log"
Academic license - for non-commercial use only - expires 2025-09-17
Using license file /Users/fredericbusch/gurobi.lic

Gurobi 9.5.1 (mac64[x86], gurobi_cl) logging started Wed Oct 23 08:44:47 2024

Set parameter Username
Set parameter LogFile to value "gurobi.log"
Academic license - for non-commercial use only - expires 2025-09-17
Using license file /Users/fredericbusch/gurobi.lic

Gurobi 9.5.1 (mac64[x86], gurobi_cl) logging started Wed Oct 23 08:49:01 2024

Set parameter Username
Set parameter LogFile to value "gurobi.log"
Academic license - for non-commercial use only - expires 2025-09-17
Using license file /Users/fredericbusch/gurobi.lic

Gurobi 9.5.1 (mac64[x86], gurobi_cl) logging started Wed Oct 23 08:50:48 2024

Set parameter Username
Set parameter LogFile to value "gurobi.log"
Academic license - for non-commercial use only - expires 2025-09-17
Using license file /Users/fredericbusch/gurobi.lic

Gurobi 9.5.1 (mac64[x86], gurobi_cl) logging started Wed Oct 23 08:51:22 2024

Set parameter Username
Set parameter LogFile to value "gurobi.log"
Academic license - for non-commercial use only - expires 2025-09-17
Using license file /Users/fredericbusch/gurobi.lic

Gurobi 9.5.1 (mac64[x86], gurobi_cl) logging started Wed Oct 23 08:52:16 2024

Set parameter Username
Set parameter LogFile to value "gurobi.log"
Academic license - for non-commercial use only - expires 2025-09-17
Using license file /Users/fredericbusch/gurobi.lic

Gurobi 9.5.1 (mac64[x86], gurobi_cl) logging started Wed Oct 23 08:53:54 2024

Set parameter Username
Set parameter LogFile to value "gurobi.log"
Academic license - for non-commercial use only - expires 2025-09-17
Using license file /Users/fredericbusch/gurobi.lic

Gurobi 9.5.1 (mac64[x86], gurobi_cl) logging started Wed Oct 23 08:55:41 2024

Set parameter Username
Set parameter LogFile to value "gurobi.log"
Academic license - for non-commercial use only - expires 2025-09-17
Using license file /Users/fredericbusch/gurobi.lic

Gurobi 9.5.1 (mac64[x86], gurobi_cl) logging started Wed Oct 23 10:58:29 2024

Set parameter Username
Set parameter LogFile to value "gurobi.log"
Academic license - for non-commercial use only - expires 2025-09-17
Using license file /Users/fredericbusch/gurobi.lic

Gurobi 9.5.1 (mac64[x86], gurobi_cl) logging started Wed Oct 23 11:48:12 2024

Set parameter Username
Set parameter LogFile to value "gurobi.log"
Academic license - for non-commercial use only - expires 2025-09-17
Using license file /Users/fredericbusch/gurobi.lic

Gurobi 9.5.1 (mac64[x86], gurobi_cl) logging started Wed Oct 23 11:48:46 2024

Set parameter Username
Set parameter LogFile to value "gurobi.log"
Academic license - for non-commercial use only - expires 2025-09-17
Using license file /Users/fredericbusch/gurobi.lic

Gurobi 9.5.1 (mac64[x86], gurobi_cl) logging started Wed Oct 23 11:49:19 2024

Set parameter Username
Set parameter LogFile to value "gurobi.log"
Academic license - for non-commercial use only - expires 2025-09-17
Using license file /Users/fredericbusch/gurobi.lic

Gurobi 9.5.1 (mac64[x86], gurobi_cl) logging started Wed Oct 23 11:55:28 2024

Set parameter Username
Set parameter LogFile to value "gurobi.log"
Academic license - for non-commercial use only - expires 2025-09-17
Using license file /Users/fredericbusch/gurobi.lic

Gurobi 9.5.1 (mac64[x86], gurobi_cl) logging started Wed Oct 23 12:03:44 2024

Set parameter Username
Set parameter LogFile to value "gurobi.log"
Academic license - for non-commercial use only - expires 2025-09-17
Using license file /Users/fredericbusch/gurobi.lic

Gurobi 9.5.1 (mac64[x86], gurobi_cl) logging started Wed Oct 23 12:05:45 2024

Set parameter Username
Set parameter LogFile to value "gurobi.log"
Academic license - for non-commercial use only - expires 2025-09-17
Using license file /Users/fredericbusch/gurobi.lic

Gurobi 9.5.1 (mac64[x86], gurobi_cl) logging started Wed Oct 23 12:17:46 2024

Set parameter Username
Set parameter LogFile to value "gurobi.log"
Academic license - for non-commercial use only - expires 2025-09-17
Using license file /Users/fredericbusch/gurobi.lic

Gurobi 9.5.1 (mac64[x86], gurobi_cl) logging started Wed Oct 23 12:26:41 2024

Set parameter Username
Set parameter LogFile to value "gurobi.log"
Academic license - for non-commercial use only - expires 2025-09-17
Using license file /Users/fredericbusch/gurobi.lic

Gurobi 9.5.1 (mac64[x86], gurobi_cl) logging started Wed Oct 23 12:27:26 2024

Set parameter Username
Set parameter LogFile to value "gurobi.log"
Academic license - for non-commercial use only - expires 2025-09-17
Using license file /Users/fredericbusch/gurobi.lic

Gurobi 9.5.1 (mac64[x86], gurobi_cl) logging started Wed Oct 23 12:49:37 2024

Set parameter Username
Set parameter LogFile to value "gurobi.log"
Academic license - for non-commercial use only - expires 2025-09-17
Using license file /Users/fredericbusch/gurobi.lic

Gurobi 9.5.1 (mac64[x86], gurobi_cl) logging started Wed Oct 23 13:02:35 2024

Set parameter Username
Set parameter LogFile to value "gurobi.log"
Academic license - for non-commercial use only - expires 2025-09-17
Using license file /Users/fredericbusch/gurobi.lic

Gurobi 9.5.1 (mac64[x86], gurobi_cl) logging started Wed Oct 23 13:03:19 2024

Set parameter Username
Set parameter LogFile to value "gurobi.log"
Academic license - for non-commercial use only - expires 2025-09-17
Using license file /Users/fredericbusch/gurobi.lic

Gurobi 9.5.1 (mac64[x86], gurobi_cl) logging started Sun Oct 27 13:04:02 2024

Set parameter Username
Set parameter LogFile to value "gurobi.log"
Academic license - for non-commercial use only - expires 2025-09-17
Using license file /Users/fredericbusch/gurobi.lic

Gurobi 9.5.1 (mac64[x86], gurobi_cl) logging started Sun Oct 27 13:04:26 2024

Set parameter Username
Set parameter LogFile to value "gurobi.log"
Academic license - for non-commercial use only - expires 2025-09-17
Using license file /Users/fredericbusch/gurobi.lic

Gurobi 9.5.1 (mac64[x86], gurobi_cl) logging started Sun Oct 27 13:07:29 2024

Set parameter Username
Set parameter LogFile to value "gurobi.log"
Academic license - for non-commercial use only - expires 2025-09-17
Using license file /Users/fredericbusch/gurobi.lic

Gurobi 9.5.1 (mac64[x86], gurobi_cl) logging started Sun Oct 27 13:09:53 2024

Set parameter Username
Set parameter LogFile to value "gurobi.log"
Academic license - for non-commercial use only - expires 2025-09-17
Using license file /Users/fredericbusch/gurobi.lic

Gurobi 9.5.1 (mac64[x86], gurobi_cl) logging started Sun Oct 27 13:10:42 2024

Set parameter Username
Set parameter LogFile to value "gurobi.log"
Academic license - for non-commercial use only - expires 2025-09-17
Using license file /Users/fredericbusch/gurobi.lic

Gurobi 9.5.1 (mac64[x86], gurobi_cl) logging started Sun Oct 27 13:12:31 2024

Set parameter Username
Set parameter LogFile to value "gurobi.log"
Academic license - for non-commercial use only - expires 2025-09-17
Using license file /Users/fredericbusch/gurobi.lic

Gurobi 9.5.1 (mac64[x86], gurobi_cl) logging started Sun Oct 27 13:16:01 2024

Set parameter Username
Set parameter LogFile to value "gurobi.log"
Academic license - for non-commercial use only - expires 2025-09-17
Using license file /Users/fredericbusch/gurobi.lic

Gurobi 9.5.1 (mac64[x86], gurobi_cl) logging started Sun Oct 27 13:16:35 2024

Set parameter Username
Set parameter LogFile to value "gurobi.log"
Academic license - for non-commercial use only - expires 2025-09-17
Using license file /Users/fredericbusch/gurobi.lic

Gurobi 9.5.1 (mac64[x86], gurobi_cl) logging started Sun Oct 27 13:19:56 2024

Set parameter Username
Set parameter LogFile to value "gurobi.log"
Academic license - for non-commercial use only - expires 2025-09-17
Using license file /Users/fredericbusch/gurobi.lic

Gurobi 9.5.1 (mac64[x86], gurobi_cl) logging started Sun Oct 27 13:20:14 2024

Set parameter Username
Set parameter LogFile to value "gurobi.log"
Academic license - for non-commercial use only - expires 2025-09-17
Using license file /Users/fredericbusch/gurobi.lic

Gurobi 9.5.1 (mac64[x86], gurobi_cl) logging started Sun Oct 27 13:24:08 2024

Set parameter Username
Set parameter LogFile to value "gurobi.log"
Academic license - for non-commercial use only - expires 2025-09-17
Using license file /Users/fredericbusch/gurobi.lic

Gurobi 9.5.1 (mac64[x86], gurobi_cl) logging started Sun Oct 27 13:24:35 2024

Set parameter Username
Set parameter LogFile to value "gurobi.log"
Academic license - for non-commercial use only - expires 2025-09-17
Using license file /Users/fredericbusch/gurobi.lic

Gurobi 9.5.1 (mac64[x86], gurobi_cl) logging started Sun Oct 27 13:24:53 2024

Set parameter Username
Set parameter LogFile to value "gurobi.log"
Academic license - for non-commercial use only - expires 2025-09-17
Using license file /Users/fredericbusch/gurobi.lic

Gurobi 9.5.1 (mac64[x86], gurobi_cl) logging started Sun Oct 27 13:29:17 2024

Set parameter Username
Set parameter LogFile to value "gurobi.log"
Academic license - for non-commercial use only - expires 2025-09-17
Using license file /Users/fredericbusch/gurobi.lic

Gurobi 9.5.1 (mac64[x86], gurobi_cl) logging started Sun Oct 27 13:29:57 2024

Set parameter Username
Set parameter LogFile to value "gurobi.log"
Academic license - for non-commercial use only - expires 2025-09-17
Using license file /Users/fredericbusch/gurobi.lic

Gurobi 9.5.1 (mac64[x86], gurobi_cl) logging started Sun Oct 27 13:30:14 2024

Set parameter Username
Set parameter LogFile to value "gurobi.log"
Academic license - for non-commercial use only - expires 2025-09-17
Using license file /Users/fredericbusch/gurobi.lic

Gurobi 9.5.1 (mac64[x86], gurobi_cl) logging started Sun Oct 27 13:31:21 2024

Set parameter Username
Set parameter LogFile to value "gurobi.log"
Academic license - for non-commercial use only - expires 2025-09-17
Using license file /Users/fredericbusch/gurobi.lic

Gurobi 9.5.1 (mac64[x86], gurobi_cl) logging started Sun Oct 27 13:32:16 2024

Set parameter Username
Set parameter LogFile to value "gurobi.log"
Academic license - for non-commercial use only - expires 2025-09-17
Using license file /Users/fredericbusch/gurobi.lic

Gurobi 9.5.1 (mac64[x86], gurobi_cl) logging started Sun Oct 27 13:32:33 2024

Set parameter Username
Set parameter LogFile to value "gurobi.log"
Academic license - for non-commercial use only - expires 2025-09-17
Using license file /Users/fredericbusch/gurobi.lic

Gurobi 9.5.1 (mac64[x86], gurobi_cl) logging started Sun Oct 27 13:35:34 2024

Set parameter Username
Set parameter LogFile to value "gurobi.log"
Academic license - for non-commercial use only - expires 2025-09-17
Using license file /Users/fredericbusch/gurobi.lic

Gurobi 9.5.1 (mac64[x86], gurobi_cl) logging started Sun Oct 27 13:45:46 2024

Set parameter Username
Set parameter LogFile to value "gurobi.log"
Academic license - for non-commercial use only - expires 2025-09-17
Using license file /Users/fredericbusch/gurobi.lic

Gurobi 9.5.1 (mac64[x86], gurobi_cl) logging started Sun Oct 27 13:46:27 2024

Set parameter Username
Set parameter LogFile to value "gurobi.log"
Academic license - for non-commercial use only - expires 2025-09-17
Using license file /Users/fredericbusch/gurobi.lic

Gurobi 9.5.1 (mac64[x86], gurobi_cl) logging started Sun Oct 27 13:46:48 2024

Set parameter Username
Set parameter LogFile to value "gurobi.log"
Academic license - for non-commercial use only - expires 2025-09-17
Using license file /Users/fredericbusch/gurobi.lic

Gurobi 9.5.1 (mac64[x86], gurobi_cl) logging started Sun Oct 27 13:46:53 2024

Set parameter Username
Set parameter LogFile to value "gurobi.log"
Academic license - for non-commercial use only - expires 2025-09-17
Using license file /Users/fredericbusch/gurobi.lic

Gurobi 9.5.1 (mac64[x86], gurobi_cl) logging started Sun Oct 27 13:47:30 2024

Set parameter Username
Set parameter LogFile to value "gurobi.log"
Academic license - for non-commercial use only - expires 2025-09-17
Using license file /Users/fredericbusch/gurobi.lic

Gurobi 9.5.1 (mac64[x86], gurobi_cl) logging started Sun Oct 27 13:47:49 2024

Set parameter Username
Set parameter LogFile to value "gurobi.log"
Academic license - for non-commercial use only - expires 2025-09-17
Using license file /Users/fredericbusch/gurobi.lic

Gurobi 9.5.1 (mac64[x86], gurobi_cl) logging started Sun Oct 27 13:48:58 2024

Set parameter Username
Set parameter LogFile to value "gurobi.log"
Academic license - for non-commercial use only - expires 2025-09-17
Using license file /Users/fredericbusch/gurobi.lic

Gurobi 9.5.1 (mac64[x86], gurobi_cl) logging started Sun Oct 27 13:49:33 2024

Set parameter Username
Set parameter LogFile to value "gurobi.log"
Academic license - for non-commercial use only - expires 2025-09-17
Using license file /Users/fredericbusch/gurobi.lic

Gurobi 9.5.1 (mac64[x86], gurobi_cl) logging started Sun Oct 27 13:50:55 2024

Set parameter Username
Set parameter LogFile to value "gurobi.log"
Academic license - for non-commercial use only - expires 2025-09-17
Using license file /Users/fredericbusch/gurobi.lic

Gurobi 9.5.1 (mac64[x86], gurobi_cl) logging started Sun Oct 27 13:53:47 2024

Set parameter Username
Set parameter LogFile to value "gurobi.log"
Academic license - for non-commercial use only - expires 2025-09-17
Using license file /Users/fredericbusch/gurobi.lic

Gurobi 9.5.1 (mac64[x86], gurobi_cl) logging started Sun Oct 27 13:55:01 2024

Set parameter Username
Set parameter LogFile to value "gurobi.log"
Academic license - for non-commercial use only - expires 2025-09-17
Using license file /Users/fredericbusch/gurobi.lic

Gurobi 9.5.1 (mac64[x86], gurobi_cl) logging started Sun Oct 27 13:55:27 2024

Set parameter Username
Set parameter LogFile to value "gurobi.log"
Academic license - for non-commercial use only - expires 2025-09-17
Using license file /Users/fredericbusch/gurobi.lic

Gurobi 9.5.1 (mac64[x86], gurobi_cl) logging started Sun Oct 27 13:56:33 2024

Set parameter Username
Set parameter LogFile to value "gurobi.log"
Academic license - for non-commercial use only - expires 2025-09-17
Using license file /Users/fredericbusch/gurobi.lic

Gurobi 9.5.1 (mac64[x86], gurobi_cl) logging started Sun Oct 27 14:12:03 2024

Set parameter Username
Set parameter LogFile to value "gurobi.log"
Academic license - for non-commercial use only - expires 2025-09-17
Using license file /Users/fredericbusch/gurobi.lic

Gurobi 9.5.1 (mac64[x86], gurobi_cl) logging started Sun Oct 27 14:21:24 2024

Set parameter Username
Set parameter LogFile to value "gurobi.log"
Academic license - for non-commercial use only - expires 2025-09-17
Using license file /Users/fredericbusch/gurobi.lic

Gurobi 9.5.1 (mac64[x86], gurobi_cl) logging started Sun Nov  3 19:35:24 2024

Set parameter Username
Set parameter LogFile to value "gurobi.log"
Academic license - for non-commercial use only - expires 2025-09-17
Using license file /Users/fredericbusch/gurobi.lic

Gurobi 9.5.1 (mac64[x86], gurobi_cl) logging started Sun Nov  3 19:48:24 2024

Set parameter Username
Set parameter LogFile to value "gurobi.log"
Academic license - for non-commercial use only - expires 2025-09-17
Using license file /Users/fredericbusch/gurobi.lic

Gurobi 9.5.1 (mac64[x86], gurobi_cl) logging started Sun Nov  3 19:59:36 2024

Set parameter Username
Set parameter LogFile to value "gurobi.log"
Academic license - for non-commercial use only - expires 2025-09-17
Using license file /Users/fredericbusch/gurobi.lic

Gurobi 9.5.1 (mac64[x86], gurobi_cl) logging started Sun Nov  3 20:01:00 2024

Set parameter Username
Set parameter LogFile to value "gurobi.log"
Academic license - for non-commercial use only - expires 2025-09-17
Using license file /Users/fredericbusch/gurobi.lic

Gurobi 9.5.1 (mac64[x86], gurobi_cl) logging started Sun Nov  3 20:02:01 2024

Set parameter Username
Set parameter LogFile to value "gurobi.log"
Academic license - for non-commercial use only - expires 2025-09-17
Using license file /Users/fredericbusch/gurobi.lic
